(set-info :source |printed by MathSAT|)
(declare-fun call_Sofar.Sofar () Bool)
(declare-fun call_voiture.toofast () Bool)
(declare-fun call_voiture.flby5 () Int)
(declare-fun call_voiture.flby () Bool)
(declare-fun move () Bool)
(declare-fun call_voiture.flby3 () Bool)
(declare-fun call_voiture.dist.next () Int)
(declare-fun call_voiture.stop.next () Bool)
(declare-fun call_voiture.meter.next () Bool)
(declare-fun call_voiture.move.next () Bool)
(declare-fun time () Int)
(declare-fun _OK_.next () Bool)
(declare-fun stop () Bool)
(declare-fun call_voiture.move () Bool)
(declare-fun speed.next () Int)
(declare-fun speed () Int)
(declare-fun call_voiture.flby6 () Int)
(declare-fun call_voiture.second () Bool)
(declare-fun call_voiture.bump () Bool)
(declare-fun call_Sofar.Sofar.next () Bool)
(declare-fun call_voiture.meter () Bool)
(declare-fun call_voiture.flby4 () Int)
(declare-fun call_voiture.flby.next () Bool)
(declare-fun call_Sofar.flby.next () Bool)
(declare-fun move.next () Bool)
(declare-fun bump () Bool)
(declare-fun bump.next () Bool)
(declare-fun call_voiture.ite2.next () Int)
(declare-fun call_voiture.bump.next () Bool)
(declare-fun call_voiture.ite3.next () Int)
(declare-fun param_m.next () Bool)
(declare-fun param_s () Bool)
(declare-fun stop.next () Bool)
(declare-fun call_voiture.second.next () Bool)
(declare-fun call_voiture.flby4.next () Int)
(declare-fun call_voiture.flby6.next () Int)
(declare-fun call_excludes2.excludes () Bool)
(declare-fun call_voiture.flby2 () Bool)
(declare-fun call_excludes2.excludes.next () Bool)
(declare-fun second.next () Bool)
(declare-fun time.next () Int)
(declare-fun dist () Int)
(declare-fun call_voiture.flby5.next () Int)
(declare-fun call_voiture.time () Int)
(declare-fun call_voiture.ite3 () Int)
(declare-fun env.next () Bool)
(declare-fun call_voiture.flby2.next () Bool)
(declare-fun dist.next () Int)
(declare-fun call_voiture.ite2 () Int)
(declare-fun meter.next () Bool)
(declare-fun call_voiture.speed () Int)
(declare-fun call_voiture.ite4.next () Int)
(declare-fun call_Sofar.flby () Bool)
(declare-fun env () Bool)
(declare-fun toofast () Bool)
(declare-fun call_voiture.stop () Bool)
(declare-fun call_voiture.flby3.next () Bool)
(declare-fun call_voiture.speed.next () Int)
(declare-fun second () Bool)
(declare-fun toofast.next () Bool)
(declare-fun call_voiture.dist () Int)
(declare-fun param_m () Bool)
(declare-fun call_voiture.time.next () Int)
(declare-fun call_voiture.ite.next () Int)
(declare-fun _OK_ () Bool)
(declare-fun call_voiture.toofast.next () Bool)
(declare-fun param_s.next () Bool)
(declare-fun meter () Bool)
(define-fun .def_513 () Bool (= call_Sofar.flby.next call_Sofar.Sofar.next))
(define-fun .def_509 () Bool (and param_s.next param_m.next))
(define-fun .def_510 () Bool (not .def_509))
(define-fun .def_511 () Bool (= call_excludes2.excludes.next .def_510))
(define-fun .def_507 () Bool (= call_voiture.meter.next call_voiture.flby.next))
(define-fun .def_505 () Bool (= call_voiture.second.next call_voiture.flby2.next))
(define-fun .def_502 () Bool (= call_voiture.move.next call_voiture.flby3.next))
(define-fun .def_499 () Bool (= call_voiture.ite3.next 0))
(define-fun .def_495 () Bool (not call_voiture.move.next))
(define-fun .def_496 () Bool (or call_voiture.second.next .def_495))
(define-fun .def_498 () Bool (not .def_496))
(define-fun .def_500 () Bool (or .def_498 .def_499))
(define-fun .def_494 () Bool (= call_voiture.ite2.next call_voiture.ite3.next))
(define-fun .def_497 () Bool (or .def_494 .def_496))
(define-fun .def_501 () Bool (and .def_497 .def_500))
(define-fun .def_503 () Bool (and .def_501 .def_502))
(define-fun .def_492 () Bool (= call_voiture.flby6.next call_voiture.time.next))
(define-fun .def_490 () Bool (= call_voiture.flby5.next call_voiture.speed.next))
(define-fun .def_488 () Bool (= call_voiture.flby4.next call_voiture.dist.next))
(define-fun .def_485 () Bool (= call_voiture.dist.next 10))
(define-fun .def_486 () Bool (= call_voiture.bump.next .def_485))
(define-fun .def_482 () Bool (<= 4 call_voiture.time.next))
(define-fun .def_483 () Bool (= call_voiture.stop.next .def_482))
(define-fun .def_479 () Bool (<= 3 call_voiture.speed.next))
(define-fun .def_480 () Bool (= call_voiture.toofast.next .def_479))
(define-fun .def_477 () Bool (= env.next call_Sofar.Sofar.next))
(define-fun .def_474 () Bool (= call_voiture.meter.next meter.next))
(define-fun .def_471 () Bool (= call_voiture.second.next second.next))
(define-fun .def_468 () Bool (= call_voiture.move.next move.next))
(define-fun .def_465 () Bool (= time.next call_voiture.time.next))
(define-fun .def_461 () Bool (= speed.next call_voiture.speed.next))
(define-fun .def_458 () Bool (= dist.next call_voiture.dist.next))
(define-fun .def_454 () Bool (= bump.next call_voiture.bump.next))
(define-fun .def_450 () Bool (= stop.next call_voiture.stop.next))
(define-fun .def_446 () Bool (= toofast.next call_voiture.toofast.next))
(define-fun .def_440 () Bool (<= 4 speed.next))
(define-fun .def_441 () Bool (not .def_440))
(define-fun .def_438 () Bool (not env.next))
(define-fun .def_442 () Bool (or .def_438 .def_441))
(define-fun .def_443 () Bool (= _OK_.next .def_442))
(define-fun .def_447 () Bool (and .def_443 .def_446))
(define-fun .def_451 () Bool (and .def_447 .def_450))
(define-fun .def_455 () Bool (and .def_451 .def_454))
(define-fun .def_459 () Bool (and .def_455 .def_458))
(define-fun .def_462 () Bool (and .def_459 .def_461))
(define-fun .def_466 () Bool (and .def_462 .def_465))
(define-fun .def_469 () Bool (and .def_466 .def_468))
(define-fun .def_472 () Bool (and .def_469 .def_471))
(define-fun .def_475 () Bool (and .def_472 .def_474))
(define-fun .def_478 () Bool (and .def_475 .def_477))
(define-fun .def_481 () Bool (and .def_478 .def_480))
(define-fun .def_484 () Bool (and .def_481 .def_483))
(define-fun .def_487 () Bool (and .def_484 .def_486))
(define-fun .def_489 () Bool (and .def_487 .def_488))
(define-fun .def_491 () Bool (and .def_489 .def_490))
(define-fun .def_493 () Bool (and .def_491 .def_492))
(define-fun .def_504 () Bool (and .def_493 .def_503))
(define-fun .def_506 () Bool (and .def_504 .def_505))
(define-fun .def_508 () Bool (and .def_506 .def_507))
(define-fun .def_512 () Bool (and .def_508 .def_511))
(define-fun .def_514 () Bool (and .def_512 .def_513))
(define-fun .def_358 () Bool (= call_Sofar.Sofar call_Sofar.flby))
(define-fun .def_352 () Bool (and param_s param_m))
(define-fun .def_353 () Bool (not .def_352))
(define-fun .def_355 () Bool (= .def_353 call_excludes2.excludes))
(define-fun .def_348 () Bool (= call_voiture.meter call_voiture.flby))
(define-fun .def_345 () Bool (= call_voiture.second call_voiture.flby2))
(define-fun .def_341 () Bool (= call_voiture.move call_voiture.flby3))
(define-fun .def_337 () Bool (= call_voiture.ite3 0))
(define-fun .def_333 () Bool (not call_voiture.move))
(define-fun .def_334 () Bool (or call_voiture.second .def_333))
(define-fun .def_336 () Bool (not .def_334))
(define-fun .def_338 () Bool (or .def_336 .def_337))
(define-fun .def_332 () Bool (= call_voiture.ite2 call_voiture.ite3))
(define-fun .def_335 () Bool (or .def_332 .def_334))
(define-fun .def_339 () Bool (and .def_335 .def_338))
(define-fun .def_342 () Bool (and .def_339 .def_341))
(define-fun .def_328 () Bool (= call_voiture.time call_voiture.flby6))
(define-fun .def_325 () Bool (= call_voiture.speed call_voiture.flby5))
(define-fun .def_322 () Bool (= call_voiture.dist call_voiture.flby4))
(define-fun .def_318 () Bool (= call_voiture.dist 10))
(define-fun .def_319 () Bool (= call_voiture.bump .def_318))
(define-fun .def_315 () Bool (<= 4 call_voiture.time))
(define-fun .def_316 () Bool (= call_voiture.stop .def_315))
(define-fun .def_312 () Bool (<= 3 call_voiture.speed))
(define-fun .def_313 () Bool (= call_voiture.toofast .def_312))
(define-fun .def_310 () Bool (= env call_Sofar.Sofar))
(define-fun .def_307 () Bool (= meter call_voiture.meter))
(define-fun .def_303 () Bool (= second call_voiture.second))
(define-fun .def_299 () Bool (= move call_voiture.move))
(define-fun .def_295 () Bool (= time call_voiture.time))
(define-fun .def_291 () Bool (= speed call_voiture.speed))
(define-fun .def_288 () Bool (= dist call_voiture.dist))
(define-fun .def_284 () Bool (= bump call_voiture.bump))
(define-fun .def_280 () Bool (= stop call_voiture.stop))
(define-fun .def_276 () Bool (= toofast call_voiture.toofast))
(define-fun .def_270 () Bool (<= 4 speed))
(define-fun .def_271 () Bool (not .def_270))
(define-fun .def_268 () Bool (not env))
(define-fun .def_272 () Bool (or .def_268 .def_271))
(define-fun .def_273 () Bool (= _OK_ .def_272))
(define-fun .def_277 () Bool (and .def_273 .def_276))
(define-fun .def_281 () Bool (and .def_277 .def_280))
(define-fun .def_285 () Bool (and .def_281 .def_284))
(define-fun .def_289 () Bool (and .def_285 .def_288))
(define-fun .def_292 () Bool (and .def_289 .def_291))
(define-fun .def_296 () Bool (and .def_292 .def_295))
(define-fun .def_300 () Bool (and .def_296 .def_299))
(define-fun .def_304 () Bool (and .def_300 .def_303))
(define-fun .def_308 () Bool (and .def_304 .def_307))
(define-fun .def_311 () Bool (and .def_308 .def_310))
(define-fun .def_314 () Bool (and .def_311 .def_313))
(define-fun .def_317 () Bool (and .def_314 .def_316))
(define-fun .def_320 () Bool (and .def_317 .def_319))
(define-fun .def_323 () Bool (and .def_320 .def_322))
(define-fun .def_326 () Bool (and .def_323 .def_325))
(define-fun .def_329 () Bool (and .def_326 .def_328))
(define-fun .def_343 () Bool (and .def_329 .def_342))
(define-fun .def_346 () Bool (and .def_343 .def_345))
(define-fun .def_349 () Bool (and .def_346 .def_348))
(define-fun .def_356 () Bool (and .def_349 .def_355))
(define-fun .def_359 () Bool (and .def_356 .def_358))
(define-fun .def_515 () Bool (and .def_359 .def_514))
(define-fun .def_432 () Bool (and call_Sofar.Sofar call_excludes2.excludes.next))
(define-fun .def_434 () Bool (= .def_432 call_Sofar.flby.next))
(define-fun .def_429 () Bool (= call_voiture.ite4.next call_voiture.flby6.next))
(define-fun .def_426 () Bool (= call_voiture.flby5.next call_voiture.ite3.next))
(define-fun .def_422 () Bool (= call_voiture.ite.next call_voiture.flby4.next))
(define-fun .def_416 () Bool (not call_voiture.bump))
(define-fun .def_414 () Bool (not call_voiture.toofast))
(define-fun .def_412 () Bool (not call_voiture.stop))
(define-fun .def_413 () Bool (and call_voiture.move .def_412))
(define-fun .def_415 () Bool (and .def_413 .def_414))
(define-fun .def_417 () Bool (and .def_415 .def_416))
(define-fun .def_419 () Bool (= .def_417 call_voiture.flby3.next))
(define-fun .def_410 () Bool (= param_s.next call_voiture.flby2.next))
(define-fun .def_403 () Bool (not param_s.next))
(define-fun .def_405 () Bool (and .def_403 param_m.next))
(define-fun .def_407 () Bool (= .def_405 call_voiture.flby.next))
(define-fun .def_398 () Bool (not call_voiture.second.next))
(define-fun .def_395 () Int (* (- 1) call_voiture.ite4.next))
(define-fun .def_396 () Int (+ call_voiture.time .def_395))
(define-fun .def_397 () Bool (= .def_396 (- 1)))
(define-fun .def_399 () Bool (or .def_397 .def_398))
(define-fun .def_392 () Bool (= call_voiture.time call_voiture.ite4.next))
(define-fun .def_394 () Bool (or .def_392 call_voiture.second.next))
(define-fun .def_400 () Bool (and .def_394 .def_399))
(define-fun .def_385 () Int (* (- 1) call_voiture.ite.next))
(define-fun .def_386 () Int (+ call_voiture.dist .def_385))
(define-fun .def_387 () Bool (= .def_386 (- 1)))
(define-fun .def_377 () Bool (and call_voiture.move.next call_voiture.meter.next))
(define-fun .def_379 () Bool (not .def_377))
(define-fun .def_388 () Bool (or .def_379 .def_387))
(define-fun .def_383 () Bool (= call_voiture.dist call_voiture.ite.next))
(define-fun .def_384 () Bool (or .def_377 .def_383))
(define-fun .def_389 () Bool (and .def_384 .def_388))
(define-fun .def_374 () Bool (= call_voiture.speed call_voiture.ite2.next))
(define-fun .def_380 () Bool (or .def_374 .def_379))
(define-fun .def_378 () Bool (or .def_374 .def_377))
(define-fun .def_381 () Bool (and .def_378 .def_380))
(define-fun .def_390 () Bool (and .def_381 .def_389))
(define-fun .def_401 () Bool (and .def_390 .def_400))
(define-fun .def_408 () Bool (and .def_401 .def_407))
(define-fun .def_411 () Bool (and .def_408 .def_410))
(define-fun .def_420 () Bool (and .def_411 .def_419))
(define-fun .def_423 () Bool (and .def_420 .def_422))
(define-fun .def_427 () Bool (and .def_423 .def_426))
(define-fun .def_430 () Bool (and .def_427 .def_429))
(define-fun .def_435 () Bool (and .def_430 .def_434))
(define-fun .def_516 () Bool (and .def_435 .def_515))
(assert .def_516)
